NAME : xql662
COMMENT : Bonn VLSI data set with 662 points
COMMENT : Uni Bonn, Research Institute for Discrete Math
COMMENT : Contributed by Andre Rohe
TYPE : TSP
DIMENSION : 662
EDGE_WEIGHT_TYPE : EUC_2D
NODE_COORD_SECTION
Command terminated by signal 9
	Command being timed: "./Held-Karp_algorithm ./dataset/xql662.tsp"
	User time (seconds): 0.32
	System time (seconds): 1.85
	Percent of CPU this job got: 97%
	Elapsed (wall clock) time (h:mm:ss or m:ss): 0:02.23
	Average shared text size (kbytes): 0
	Average unshared data size (kbytes): 0
	Average stack size (kbytes): 0
	Average total size (kbytes): 0
	Maximum resident set size (kbytes): 5053680
	Average resident set size (kbytes): 0
	Major (requiring I/O) page faults: 78
	Minor (reclaiming a frame) page faults: 1259914
	Voluntary context switches: 101
	Involuntary context switches: 160
	Swaps: 0
	File system inputs: 15520
	File system outputs: 8
	Socket messages sent: 0
	Socket messages received: 0
	Signals delivered: 0
	Page size (bytes): 4096
	Exit status: 0
